(set-info :smt-lib-version 2.6)
(set-logic LRA)
(set-info :source |
   Scholl, Christoph; Disch, Stefan; Pigorsch, Florian and Kupferschmid, 
   Stefan; Using an SMT Solver and Craig Interpolation to Detect and Remove 
   Redundant Linear Constraints in Representations of Non-Convex Polyhedra.
   Proceedings of 6th International Workshop on Satisfiability Modulo
   Theories, Princeton, USA, July 2008.
   <http://abs.informatik.uni-freiburg.de/smtbench/>
|)
(set-info :category "random")
(set-info :status sat)
(declare-fun x1 () Real)
(declare-fun x2 () Real)
(declare-fun x3 () Real)
(assert (exists ((?x1 Real)) (forall ((?x2 Real)) (exists ((?x3 Real)) (let ((?v_24 (* 67 ?x3)) (?v_22 (* 15 ?x3)) (?v_47 (* 41 ?x1)) (?v_48 (* 90 ?x1)) (?v_19 (* 95 ?x2)) (?v_6 (* 79 ?x1)) (?v_8 (* 76 ?x3)) (?v_10 (* 16 ?x3)) (?v_45 (* 59 ?x1)) (?v_12 (* 10 ?x2)) (?v_65 (* 56 ?x3)) (?v_46 (* 18 ?x2)) (?v_29 (* 42 ?x1)) (?v_27 (* 16 ?x1)) (?v_26 (* 34 ?x3)) (?v_37 (* 54 ?x3)) (?v_32 (* 98 ?x2)) (?v_20 (* 96 ?x3)) (?v_16 (* 75 ?x1)) (?v_38 (* 95 ?x1)) (?v_44 (* 97 ?x3)) (?v_56 (* 49 ?x2)) (?v_41 (* 1 ?x1)) (?v_40 (* 48 ?x1)) (?v_30 (* 84 ?x2)) (?v_31 (* 97 ?x1)) (?v_62 (* 14 ?x2)) (?v_35 (* 60 ?x1)) (?v_64 (* 26 ?x1)) (?v_60 (* 67 ?x2)) (?v_54 (* 20 ?x2)) (?v_69 (* 81 ?x3)) (?v_2 (* (- 25) ?x3)) (?v_7 (* (- 9) ?x1)) (?v_1 (* (- 60) ?x3)) (?v_5 (* (- 1) ?x2)) (?v_15 (* (- 59) ?x3)) (?v_4 (* (- 35) ?x3)) (?v_36 (* (- 8) ?x3)) (?v_0 (* (- 37) ?x2)) (?v_3 (* (- 47) ?x3)) (?v_55 (* (- 100) ?x1)) (?v_67 (* (- 93) ?x2)) (?v_18 (* (- 98) ?x2)) (?v_52 (* (- 20) ?x3)) (?v_11 (* (- 90) ?x2)) (?v_13 (* (- 35) ?x1)) (?v_21 (* (- 62) ?x3)) (?v_43 (* (- 60) ?x2)) (?v_68 (* (- 55) ?x2)) (?v_25 (* (- 56) ?x2)) (?v_28 (* (- 95) ?x2)) (?v_50 (* (- 32) ?x1)) (?v_9 (* (- 94) ?x2)) (?v_34 (* (- 70) ?x1)) (?v_57 (* (- 87) ?x2)) (?v_23 (* (- 75) ?x2)) (?v_17 (* (- 4) ?x1)) (?v_14 (* (- 14) ?x2)) (?v_61 (* (- 5) ?x1)) (?v_33 (* (- 56) ?x3)) (?v_66 (* (- 23) ?x2)) (?v_53 (* (- 22) ?x2)) (?v_42 (* (- 64) ?x3)) (?v_39 (* (- 14) ?x1)) (?v_51 (* (- 25) ?x2)) (?v_49 (* (- 81) ?x3)) (?v_63 (* (- 11) ?x3)) (?v_58 (* (- 67) ?x1)) (?v_59 (* (- 24) ?x2))) (or (and (or (or (and (and (and (< (+ (+ (* 24 ?x1) (* (- 36) ?x2)) ?v_2) 4) (= (+ (+ ?v_7 (* (- 26) ?x2)) (* (- 38) ?x3)) 12)) (or (>= (+ (+ (* (- 11) ?x1) (* (- 58) ?x2)) ?v_1) 0) (<= (+ (* 94 ?x1) (* 94 ?x2)) 0))) (or (and (>= (+ (+ (* 46 ?x1) ?v_5) ?v_24) 0) (>= (+ (+ (* (- 48) ?x1) (* 28 ?x2)) ?v_15) 22)) (or (<= (+ (+ (* (- 29) ?x1) (* (- 54) ?x2)) ?v_22) 0) (= (+ (+ (* 5 ?x1) (* (- 65) ?x2)) ?v_4) 6)))) (and (and (> (+ (* 93 ?x1) ?v_36) 69) (or (>= (+ (+ ?v_47 (* (- 21) ?x2)) (* (- 14) ?x3)) 64) (and (= (+ (* 11 ?x1) (* 5 ?x2)) 0) (<= (+ (+ (* 34 ?x1) ?v_0) (* (- 80) ?x3)) 14)))) (or (or (and (not (= (+ (+ (* 68 ?x1) (* (- 63) ?x2)) (* 49 ?x3)) (- 30))) (>= (+ (* 80 ?x2) (* (- 52) ?x3)) 13)) (and (>= (+ (+ ?v_48 ?v_0) ?v_3) (- 98)) (= (+ (* (- 77) ?x2) (* (- 23) ?x3)) 0))) (> (+ (* 27 ?x2) ?v_1) 6)))) (or (and (or (and (and (> (+ ?v_55 (* (- 9) ?x2)) 0) (not (= (+ (* (- 57) ?x2) (* 71 ?x3)) (- 33)))) (and (not (= (+ (* (- 21) ?x1) (* 58 ?x3)) 15)) (<= (+ ?v_19 ?v_2) (- 19)))) (and (or (= ?v_3 17) (not (= (+ (+ (* (- 43) ?x1) ?v_67) (* 10 ?x3)) (- 57)))) (and (> (+ ?v_6 ?v_8) 0) (not (= (* 37 ?x3) 15))))) (and (= (+ (* (- 62) ?x1) ?v_4) 0) (<= (+ ?v_18 (* 69 ?x3)) 47))) (and (or (or (not (= (+ (* (- 83) ?x1) (* 80 ?x3)) 0)) (> (* 37 ?x2) 62)) (or (or (= (+ (* 76 ?x2) ?v_52) 0) (>= (+ (* (- 77) ?x1) ?v_11) (- 95))) (and (>= (+ (* (- 6) ?x2) (* 94 ?x3)) 79) (= (* (- 31) ?x3) 0)))) (< (+ (+ ?v_13 ?v_5) ?v_21) (- 29))))) (or (and (or (and (not (= ?v_10 (- 36))) (> (+ (+ (* (- 68) ?x1) ?v_43) (* 17 ?x3)) 0)) (or (> (+ (+ (* 83 ?x1) (* 73 ?x2)) (* (- 72) ?x3)) 6) (not (= (+ ?v_45 ?v_68) 42)))) (or (or (<= (+ ?v_25 (* (- 76) ?x3)) (- 28)) (or (<= (+ ?v_28 (* 64 ?x3)) 0) (> (+ ?v_6 (* 9 ?x3)) (- 13)))) (or (and (= (+ (+ (* 56 ?x1) (* 13 ?x2)) (* 27 ?x3)) 6) (> (+ ?v_7 (* 15 ?x2)) (- 85))) (or (not (= (+ (+ ?v_50 ?v_12) (* (- 79) ?x3)) 0)) (> (+ (+ (* 62 ?x1) ?v_9) ?v_65) (- 82)))))) (and (or (and (and (>= (+ (* 74 ?x1) ?v_46) 0) (and (< (+ (+ ?v_34 ?v_57) ?v_8) 46) (>= (+ ?v_29 ?v_23) 58))) (or (and (= (+ ?v_17 ?v_14) 0) (= (+ (+ (* (- 1) ?x1) ?v_9) ?v_10) 0)) (> (+ ?v_61 ?v_11) 29))) (and (or (>= (+ (+ ?v_27 ?v_12) ?v_26) 49) (> (+ (* (- 92) ?x2) ?v_37) (- 55))) (and (< (+ (+ (* 45 ?x1) (* 97 ?x2)) (* (- 63) ?x3)) (- 71)) (<= (+ (+ ?v_13 ?v_14) ?v_15) 27)))) (and (or (or (or (> (+ (+ (* (- 98) ?x1) ?v_32) ?v_20) 48) (< (+ (* (- 78) ?x1) (* 82 ?x2)) (- 38))) (or (<= (+ (+ ?v_16 (* 44 ?x2)) ?v_33) (- 91)) (<= (+ ?v_66 (* 6 ?x3)) 29))) (or (and (<= (+ ?v_16 (* 77 ?x2)) (- 67)) (= (* 31 ?x2) 0)) (and (<= (+ ?v_38 (* (- 90) ?x3)) (- 79)) (>= (+ (* 59 ?x2) ?v_44) 34)))) (or (or (or (< (* (- 44) ?x1) (- 11)) (not (= (+ ?v_17 ?v_18) 63))) (or (< (+ (* 98 ?x1) (* 82 ?x3)) 25) (<= (+ (+ (* (- 76) ?x1) ?v_19) (* 73 ?x3)) 5))) (and (and (< (+ (* 9 ?x1) ?v_20) (- 11)) (<= (+ (+ (* (- 72) ?x1) (* 53 ?x2)) ?v_21) (- 22))) (and (<= (+ ?v_56 ?v_22) 74) (> (+ (* 39 ?x2) (* (- 95) ?x3)) (- 87))))))))) (or (and (or (or (and (and (<= (+ (+ (* (- 46) ?x1) ?v_23) ?v_24) 0) (= (+ (+ ?v_41 (* 81 ?x2)) (* 7 ?x3)) (- 96))) (or (= (+ (+ ?v_40 ?v_25) ?v_26) 42) (< ?v_27 34))) (and (or (>= (+ ?v_30 (* 60 ?x3)) 0) (<= (+ (+ ?v_31 ?v_62) ?v_4) (- 72))) (or (> (+ (* 35 ?x1) (* (- 75) ?x3)) (- 46)) (<= ?v_53 0)))) (or (and (> (+ (* 42 ?x2) ?v_42) 45) (> (+ ?v_28 (* (- 39) ?x3)) 57)) (and (and (> (+ (* 74 ?x2) (* (- 1) ?x3)) (- 7)) (>= (+ ?v_35 ?v_23) 0)) (and (>= (+ ?v_29 ?v_30) 0) (= (+ (+ ?v_64 (* (- 16) ?x2)) (* (- 58) ?x3)) (- 57)))))) (and (and (or (and (= (+ (* 69 ?x1) (* 72 ?x2)) 45) (>= (+ (+ (* 99 ?x1) (* 3 ?x2)) (* (- 44) ?x3)) (- 38))) (or (= (+ (+ ?v_31 ?v_32) ?v_33) 96) (> (+ (+ (* (- 37) ?x1) ?v_14) (* (- 84) ?x3)) 29))) (and (and (> (+ (+ ?v_34 (* (- 61) ?x2)) (* (- 41) ?x3)) 68) (<= ?v_35 (- 18))) (or (<= (+ (+ (* (- 42) ?x1) ?v_60) (* 68 ?x3)) (- 51)) (< ?v_17 (- 95))))) (or (or (not (= (+ (+ (* 47 ?x1) (* 75 ?x2)) ?v_36) 42)) (not (= (+ (+ (* 39 ?x1) (* 57 ?x2)) ?v_37) 9))) (or (or (not (= (+ ?v_38 (* (- 40) ?x2)) 20)) (> (+ ?v_39 (* 22 ?x2)) 53)) (>= ?v_39 (- 2)))))) (and (and (and (and (or (or (>= (+ (+ ?v_40 (* 52 ?x2)) (* 85 ?x3)) 70) (not (= (+ ?v_34 (* 48 ?x3)) (- 30)))) (or (<= (+ (+ (* (- 94) ?x1) (* (- 8) ?x2)) (* 40 ?x3)) 47) (> (+ ?v_41 ?v_42) 27))) (and (or (= (+ (+ (* 29 ?x1) (* 43 ?x2)) (* (- 30) ?x3)) 0) (not (= (+ ?v_51 (* 3 ?x3)) 39))) (or (>= (+ (* 58 ?x1) ?v_49) (- 2)) (< (+ (+ (* 40 ?x1) (* (- 15) ?x2)) (* (- 36) ?x3)) 0)))) (or (<= (* (- 58) ?x1) 0) (or (= (* 38 ?x3) (- 21)) (= (+ (* (- 88) ?x1) ?v_43) (- 9))))) (or (and (or (= (+ (* (- 60) ?x1) ?v_44) (- 39)) (< (+ (+ ?v_45 ?v_46) (* 47 ?x3)) 94)) (and (> (+ (+ (* 81 ?x1) (* (- 67) ?x2)) ?v_63) 17) (not (= (+ (+ ?v_47 (* 90 ?x2)) (* (- 67) ?x3)) 0)))) (and (and (>= ?v_48 1) (< (+ (* (- 87) ?x1) ?v_19) 46)) (or (and (= (+ (* (- 19) ?x1) (* (- 86) ?x3)) (- 97)) (<= (+ (+ ?v_58 ?v_54) ?v_49) 68)) (not (= (+ (* 86 ?x1) (* (- 20) ?x2)) 80)))))) (and (or (and (or (or (not (= (+ (+ ?v_50 ?v_51) ?v_52) 12)) (= (+ (+ (* (- 69) ?x1) ?v_53) (* (- 99) ?x3)) (- 100))) (or (>= (+ (+ ?v_48 ?v_54) (* (- 98) ?x3)) (- 23)) (= (+ (* 76 ?x1) (* (- 12) ?x3)) 80))) (and (<= (+ ?v_55 (* (- 33) ?x2)) 0) (<= (+ (+ (* (- 71) ?x1) ?v_56) (* (- 40) ?x3)) (- 33)))) (and (or (and (< (+ (+ (* (- 40) ?x1) ?v_59) (* 35 ?x3)) 34) (< (+ ?v_57 ?v_3) 0)) (and (> (+ (+ ?v_58 ?v_59) (* 11 ?x3)) (- 84)) (>= ?v_43 52))) (or (and (not (= (+ (+ (* (- 75) ?x1) ?v_60) ?v_4) 63)) (<= (+ (* 25 ?x1) (* 41 ?x2)) 98)) (and (> (+ (+ (* 53 ?x1) (* 45 ?x2)) (* 44 ?x3)) 21) (< (+ (+ ?v_61 ?v_62) ?v_63) 97))))) (and (and (or (< (+ (* (- 23) ?x1) ?v_23) (- 80)) (<= (+ (+ (* 15 ?x1) ?v_56) (* (- 45) ?x3)) 0)) (>= (+ ?v_35 (* (- 11) ?x2)) 43)) (or (or (and (<= (* 21 ?x2) 71) (> (+ (+ ?v_64 (* 66 ?x2)) (* (- 4) ?x3)) (- 75))) (and (= (+ (* 88 ?x2) ?v_65) 0) (= (+ (* (- 50) ?x1) ?v_66) 17))) (and (or (<= (+ ?v_67 ?v_69) (- 22)) (<= (+ (+ (* (- 26) ?x1) (* 4 ?x2)) (* 28 ?x3)) 47)) (or (not (= (+ (+ ?v_16 ?v_68) ?v_69) (- 21))) (> (+ (* 52 ?x1) (* 87 ?x2)) 48))))))))))))))
(check-sat)
(exit)
